proyfinal/src/viki/013/andrea/andrea-localstore/experimentInOfficeAgust.take6/worker_9/c7bb55d9-ae12-4c7d-b50f-81394957ec37.als.cnf.out
Reading from standard input... Use '--help' for help.
============================[ Problem Statistics ]=============================
|                                                                             |
|  Number of variables:         87638                                         |
|  Number of clauses:          161767                                         |
|  Parse time:                   0.04 s                                       |
|                                                                             |
============================[ Search Statistics ]==============================
| Conflicts |          ORIGINAL         |          LEARNT          | Progress |
|           |    Vars  Clauses Literals |    Limit  Clauses Lit/Cl |          |
===============================================================================
|       100 |   65070   114991   286488 |    42163      100     16 | 25.751 % |
|       250 |   65070   114991   286488 |    46379      250     36 | 25.751 % |
|       475 |   65070   114991   286488 |    51017      475     64 | 25.751 % |
|       812 |   65070   114991   286488 |    56119      812     52 | 25.751 % |
|      1318 |   65070   114991   286488 |    61731     1318     53 | 25.751 % |
|      2077 |   65050   114913   286302 |    67904     2076     54 | 25.774 % |
|      3216 |   65050   114913   286302 |    74694     3215     61 | 25.774 % |
|      4924 |   65050   114913   286302 |    82164     4923     67 | 25.774 % |
|      7486 |   60995   101204   252538 |    90380     7453     96 | 30.401 % |
|     11330 |   60995   101204   252538 |    99419    11297    108 | 30.401 % |
|     17096 |   60935   100996   252056 |   109360    16584    121 | 30.470 % |
===============================================================================
restarts              : 63
conflicts             : 18389          (7191 /sec)
decisions             : 78649          (0.00 % random) (30756 /sec)
propagations          : 26778195       (10471624 /sec)
conflict literals     : 2253054        (33.01 % deleted)
Memory used           : 39.79 MB
CPU time              : 2.55722 s

INDETERMINATE
